p wcnf 24 8
9 -1 -2 0
9 -1 -5 0
9 -1 -6 0
9 -1 -7 0
9 -2 -4 0
9 -2 -6 0
9 -2 -7 0
9 -3 -5 0
9 -3 -6 0
9 -3 -7 0
9 -3 -8 0
9 -4 -5 0
9 -4 -6 0
9 -5 -6 0
9 -5 -8 0
9 -6 -7 0
1 1 1 0
1 2 2 0
1 3 3 0
1 4 4 0
1 5 5 0
1 6 6 0
1 7 7 0
1 8 8 0
